Route #1: 26 20 41 45 54 53 57 33 62 43 21 46 56 59
Route #2: 37 5 38 39 3 42 51 36 61 4 17 31
Route #3: 35 23 16 10
Route #4: 8 55 58 29 34 64 49 12 24
Route #5: 50 6 22 19 9 11 60 25
Route #6: 40 52 18
Route #7: 48 27 32 47 7 65
Route #8: 63 2 30 13 14
Route #9: 1 44 28 15
cost 2209.171734683008
